c *********************************
c * Circuit generated by BenCGen
c *
c * Parity_155
c *
c * Ports with 1 gate(s): 1
c * Ports with 2 gate(s): 155
c * Total gates: 156
c *********************************
p cnf 311 621
1 158 0
-1 -158 0
1 -157 0
158 -157 0
-1 -158 157 0
1 2 -159 0
-1 2 159 0
1 -2 159 0
-1 -2 -159 0
3 4 -160 0
-3 4 160 0
3 -4 160 0
-3 -4 -160 0
5 6 -161 0
-5 6 161 0
5 -6 161 0
-5 -6 -161 0
7 8 -162 0
-7 8 162 0
7 -8 162 0
-7 -8 -162 0
9 10 -163 0
-9 10 163 0
9 -10 163 0
-9 -10 -163 0
11 12 -164 0
-11 12 164 0
11 -12 164 0
-11 -12 -164 0
13 14 -165 0
-13 14 165 0
13 -14 165 0
-13 -14 -165 0
15 16 -166 0
-15 16 166 0
15 -16 166 0
-15 -16 -166 0
17 18 -167 0
-17 18 167 0
17 -18 167 0
-17 -18 -167 0
19 20 -168 0
-19 20 168 0
19 -20 168 0
-19 -20 -168 0
21 22 -169 0
-21 22 169 0
21 -22 169 0
-21 -22 -169 0
23 24 -170 0
-23 24 170 0
23 -24 170 0
-23 -24 -170 0
25 26 -171 0
-25 26 171 0
25 -26 171 0
-25 -26 -171 0
27 28 -172 0
-27 28 172 0
27 -28 172 0
-27 -28 -172 0
29 30 -173 0
-29 30 173 0
29 -30 173 0
-29 -30 -173 0
31 32 -174 0
-31 32 174 0
31 -32 174 0
-31 -32 -174 0
33 34 -175 0
-33 34 175 0
33 -34 175 0
-33 -34 -175 0
35 36 -176 0
-35 36 176 0
35 -36 176 0
-35 -36 -176 0
37 38 -177 0
-37 38 177 0
37 -38 177 0
-37 -38 -177 0
39 40 -178 0
-39 40 178 0
39 -40 178 0
-39 -40 -178 0
41 42 -179 0
-41 42 179 0
41 -42 179 0
-41 -42 -179 0
43 44 -180 0
-43 44 180 0
43 -44 180 0
-43 -44 -180 0
45 46 -181 0
-45 46 181 0
45 -46 181 0
-45 -46 -181 0
47 48 -182 0
-47 48 182 0
47 -48 182 0
-47 -48 -182 0
49 50 -183 0
-49 50 183 0
49 -50 183 0
-49 -50 -183 0
51 52 -184 0
-51 52 184 0
51 -52 184 0
-51 -52 -184 0
53 54 -185 0
-53 54 185 0
53 -54 185 0
-53 -54 -185 0
55 56 -186 0
-55 56 186 0
55 -56 186 0
-55 -56 -186 0
57 58 -187 0
-57 58 187 0
57 -58 187 0
-57 -58 -187 0
59 60 -188 0
-59 60 188 0
59 -60 188 0
-59 -60 -188 0
61 62 -189 0
-61 62 189 0
61 -62 189 0
-61 -62 -189 0
63 64 -190 0
-63 64 190 0
63 -64 190 0
-63 -64 -190 0
65 66 -191 0
-65 66 191 0
65 -66 191 0
-65 -66 -191 0
67 68 -192 0
-67 68 192 0
67 -68 192 0
-67 -68 -192 0
69 70 -193 0
-69 70 193 0
69 -70 193 0
-69 -70 -193 0
71 72 -194 0
-71 72 194 0
71 -72 194 0
-71 -72 -194 0
73 74 -195 0
-73 74 195 0
73 -74 195 0
-73 -74 -195 0
75 76 -196 0
-75 76 196 0
75 -76 196 0
-75 -76 -196 0
77 78 -197 0
-77 78 197 0
77 -78 197 0
-77 -78 -197 0
79 80 -198 0
-79 80 198 0
79 -80 198 0
-79 -80 -198 0
81 82 -199 0
-81 82 199 0
81 -82 199 0
-81 -82 -199 0
83 84 -200 0
-83 84 200 0
83 -84 200 0
-83 -84 -200 0
85 86 -201 0
-85 86 201 0
85 -86 201 0
-85 -86 -201 0
87 88 -202 0
-87 88 202 0
87 -88 202 0
-87 -88 -202 0
89 90 -203 0
-89 90 203 0
89 -90 203 0
-89 -90 -203 0
91 92 -204 0
-91 92 204 0
91 -92 204 0
-91 -92 -204 0
93 94 -205 0
-93 94 205 0
93 -94 205 0
-93 -94 -205 0
95 96 -206 0
-95 96 206 0
95 -96 206 0
-95 -96 -206 0
97 98 -207 0
-97 98 207 0
97 -98 207 0
-97 -98 -207 0
99 100 -208 0
-99 100 208 0
99 -100 208 0
-99 -100 -208 0
101 102 -209 0
-101 102 209 0
101 -102 209 0
-101 -102 -209 0
103 104 -210 0
-103 104 210 0
103 -104 210 0
-103 -104 -210 0
105 106 -211 0
-105 106 211 0
105 -106 211 0
-105 -106 -211 0
107 108 -212 0
-107 108 212 0
107 -108 212 0
-107 -108 -212 0
109 110 -213 0
-109 110 213 0
109 -110 213 0
-109 -110 -213 0
111 112 -214 0
-111 112 214 0
111 -112 214 0
-111 -112 -214 0
113 114 -215 0
-113 114 215 0
113 -114 215 0
-113 -114 -215 0
115 116 -216 0
-115 116 216 0
115 -116 216 0
-115 -116 -216 0
117 118 -217 0
-117 118 217 0
117 -118 217 0
-117 -118 -217 0
119 120 -218 0
-119 120 218 0
119 -120 218 0
-119 -120 -218 0
121 122 -219 0
-121 122 219 0
121 -122 219 0
-121 -122 -219 0
123 124 -220 0
-123 124 220 0
123 -124 220 0
-123 -124 -220 0
125 126 -221 0
-125 126 221 0
125 -126 221 0
-125 -126 -221 0
127 128 -222 0
-127 128 222 0
127 -128 222 0
-127 -128 -222 0
129 130 -223 0
-129 130 223 0
129 -130 223 0
-129 -130 -223 0
131 132 -224 0
-131 132 224 0
131 -132 224 0
-131 -132 -224 0
133 134 -225 0
-133 134 225 0
133 -134 225 0
-133 -134 -225 0
135 136 -226 0
-135 136 226 0
135 -136 226 0
-135 -136 -226 0
137 138 -227 0
-137 138 227 0
137 -138 227 0
-137 -138 -227 0
139 140 -228 0
-139 140 228 0
139 -140 228 0
-139 -140 -228 0
141 142 -229 0
-141 142 229 0
141 -142 229 0
-141 -142 -229 0
143 144 -230 0
-143 144 230 0
143 -144 230 0
-143 -144 -230 0
145 146 -231 0
-145 146 231 0
145 -146 231 0
-145 -146 -231 0
147 148 -232 0
-147 148 232 0
147 -148 232 0
-147 -148 -232 0
149 150 -233 0
-149 150 233 0
149 -150 233 0
-149 -150 -233 0
151 152 -234 0
-151 152 234 0
151 -152 234 0
-151 -152 -234 0
153 154 -235 0
-153 154 235 0
153 -154 235 0
-153 -154 -235 0
159 160 -236 0
-159 160 236 0
159 -160 236 0
-159 -160 -236 0
161 162 -237 0
-161 162 237 0
161 -162 237 0
-161 -162 -237 0
163 164 -238 0
-163 164 238 0
163 -164 238 0
-163 -164 -238 0
165 166 -239 0
-165 166 239 0
165 -166 239 0
-165 -166 -239 0
167 168 -240 0
-167 168 240 0
167 -168 240 0
-167 -168 -240 0
169 170 -241 0
-169 170 241 0
169 -170 241 0
-169 -170 -241 0
171 172 -242 0
-171 172 242 0
171 -172 242 0
-171 -172 -242 0
173 174 -243 0
-173 174 243 0
173 -174 243 0
-173 -174 -243 0
175 176 -244 0
-175 176 244 0
175 -176 244 0
-175 -176 -244 0
177 178 -245 0
-177 178 245 0
177 -178 245 0
-177 -178 -245 0
179 180 -246 0
-179 180 246 0
179 -180 246 0
-179 -180 -246 0
181 182 -247 0
-181 182 247 0
181 -182 247 0
-181 -182 -247 0
183 184 -248 0
-183 184 248 0
183 -184 248 0
-183 -184 -248 0
185 186 -249 0
-185 186 249 0
185 -186 249 0
-185 -186 -249 0
187 188 -250 0
-187 188 250 0
187 -188 250 0
-187 -188 -250 0
189 190 -251 0
-189 190 251 0
189 -190 251 0
-189 -190 -251 0
191 192 -252 0
-191 192 252 0
191 -192 252 0
-191 -192 -252 0
193 194 -253 0
-193 194 253 0
193 -194 253 0
-193 -194 -253 0
195 196 -254 0
-195 196 254 0
195 -196 254 0
-195 -196 -254 0
197 198 -255 0
-197 198 255 0
197 -198 255 0
-197 -198 -255 0
199 200 -256 0
-199 200 256 0
199 -200 256 0
-199 -200 -256 0
201 202 -257 0
-201 202 257 0
201 -202 257 0
-201 -202 -257 0
203 204 -258 0
-203 204 258 0
203 -204 258 0
-203 -204 -258 0
205 206 -259 0
-205 206 259 0
205 -206 259 0
-205 -206 -259 0
207 208 -260 0
-207 208 260 0
207 -208 260 0
-207 -208 -260 0
209 210 -261 0
-209 210 261 0
209 -210 261 0
-209 -210 -261 0
211 212 -262 0
-211 212 262 0
211 -212 262 0
-211 -212 -262 0
213 214 -263 0
-213 214 263 0
213 -214 263 0
-213 -214 -263 0
215 216 -264 0
-215 216 264 0
215 -216 264 0
-215 -216 -264 0
217 218 -265 0
-217 218 265 0
217 -218 265 0
-217 -218 -265 0
219 220 -266 0
-219 220 266 0
219 -220 266 0
-219 -220 -266 0
221 222 -267 0
-221 222 267 0
221 -222 267 0
-221 -222 -267 0
223 224 -268 0
-223 224 268 0
223 -224 268 0
-223 -224 -268 0
225 226 -269 0
-225 226 269 0
225 -226 269 0
-225 -226 -269 0
227 228 -270 0
-227 228 270 0
227 -228 270 0
-227 -228 -270 0
229 230 -271 0
-229 230 271 0
229 -230 271 0
-229 -230 -271 0
231 232 -272 0
-231 232 272 0
231 -232 272 0
-231 -232 -272 0
233 234 -273 0
-233 234 273 0
233 -234 273 0
-233 -234 -273 0
235 155 -274 0
-235 155 274 0
235 -155 274 0
-235 -155 -274 0
236 237 -275 0
-236 237 275 0
236 -237 275 0
-236 -237 -275 0
238 239 -276 0
-238 239 276 0
238 -239 276 0
-238 -239 -276 0
240 241 -277 0
-240 241 277 0
240 -241 277 0
-240 -241 -277 0
242 243 -278 0
-242 243 278 0
242 -243 278 0
-242 -243 -278 0
244 245 -279 0
-244 245 279 0
244 -245 279 0
-244 -245 -279 0
246 247 -280 0
-246 247 280 0
246 -247 280 0
-246 -247 -280 0
248 249 -281 0
-248 249 281 0
248 -249 281 0
-248 -249 -281 0
250 251 -282 0
-250 251 282 0
250 -251 282 0
-250 -251 -282 0
252 253 -283 0
-252 253 283 0
252 -253 283 0
-252 -253 -283 0
254 255 -284 0
-254 255 284 0
254 -255 284 0
-254 -255 -284 0
256 257 -285 0
-256 257 285 0
256 -257 285 0
-256 -257 -285 0
258 259 -286 0
-258 259 286 0
258 -259 286 0
-258 -259 -286 0
260 261 -287 0
-260 261 287 0
260 -261 287 0
-260 -261 -287 0
262 263 -288 0
-262 263 288 0
262 -263 288 0
-262 -263 -288 0
264 265 -289 0
-264 265 289 0
264 -265 289 0
-264 -265 -289 0
266 267 -290 0
-266 267 290 0
266 -267 290 0
-266 -267 -290 0
268 269 -291 0
-268 269 291 0
268 -269 291 0
-268 -269 -291 0
270 271 -292 0
-270 271 292 0
270 -271 292 0
-270 -271 -292 0
272 273 -293 0
-272 273 293 0
272 -273 293 0
-272 -273 -293 0
275 276 -294 0
-275 276 294 0
275 -276 294 0
-275 -276 -294 0
277 278 -295 0
-277 278 295 0
277 -278 295 0
-277 -278 -295 0
279 280 -296 0
-279 280 296 0
279 -280 296 0
-279 -280 -296 0
281 282 -297 0
-281 282 297 0
281 -282 297 0
-281 -282 -297 0
283 284 -298 0
-283 284 298 0
283 -284 298 0
-283 -284 -298 0
285 286 -299 0
-285 286 299 0
285 -286 299 0
-285 -286 -299 0
287 288 -300 0
-287 288 300 0
287 -288 300 0
-287 -288 -300 0
289 290 -301 0
-289 290 301 0
289 -290 301 0
-289 -290 -301 0
291 292 -302 0
-291 292 302 0
291 -292 302 0
-291 -292 -302 0
293 274 -303 0
-293 274 303 0
293 -274 303 0
-293 -274 -303 0
294 295 -304 0
-294 295 304 0
294 -295 304 0
-294 -295 -304 0
296 297 -305 0
-296 297 305 0
296 -297 305 0
-296 -297 -305 0
298 299 -306 0
-298 299 306 0
298 -299 306 0
-298 -299 -306 0
300 301 -307 0
-300 301 307 0
300 -301 307 0
-300 -301 -307 0
302 303 -308 0
-302 303 308 0
302 -303 308 0
-302 -303 -308 0
304 305 -309 0
-304 305 309 0
304 -305 309 0
-304 -305 -309 0
306 307 -310 0
-306 307 310 0
306 -307 310 0
-306 -307 -310 0
309 310 -311 0
-309 310 311 0
309 -310 311 0
-309 -310 -311 0
311 308 -156 0
-311 308 156 0
311 -308 156 0
-311 -308 -156 0
